13
227 235 525 0 0 0 a
110 289 60 0 0 525 a
110 289 60 110 0 525 a
110 214 60 220 0 525 a
199 81 350 0 235 0 a
209 79 191 199 235 0 a
227 235 525 227 0 0 a
262 265 394 454 0 0 a
389 250 161 454 0 394 a
125 159 251 716 0 0 a
137 145 135 716 0 251 a
92 121 182 716 159 0 a
104 144 115 716 145 251 a
